8
[[-914583815, 45443, 0, 0, 0, 1619036113, 45972, 33686],[45443, -1, 0, 39861, 0, -1450072174, 0, 0],[0, 0, -1, 41951, 43627, 982462600, 38049, 0],[0, 39861, 41951, -1, 0, 30633, 15944, 0],[0, 0, 43627, 0, -1, -1237473421, 34351, 43199],[1619036113, -1450072174, 982462600, 30633, -1237473421, -1, 0, 30721],[45972, 0, 38049, 15944, 34351, 0, -1, 615232138],[33686, 0, 0, 0, 43199, 30721, 615232138, -1]]